19 51 30 9 88 66 43 21 97 73 48 24 98 71 44 16 89 60 31 1 70 38 6 75 39 4 68 33 93 55 14 76 32 86 45 95 50 99 49 92 40 82 25 64 5 41 74 7 34 61 81 2 18 29 46 53 54 47 35 20 8 83 58 62 0 77 56 84 80 10 96 57 85 13 72 3 15 65 12 79 67 28 17 59 91 42 94 26 90 22 87 78 69 63 52 37 36 27 23 11 

